
%FILE DATA:	Soccer Computational Problem for MiniZinc Models	%
%AUTHOR:	Jack Wall	%
%CONTACT:  	116397063@umail.ucc.ie			%
%LAST UPDATE:	03/03/2020, 12:07:43						%
%DESCRIPTION: 	77 games played with 33 games left				%


n=11; %number of teams

%Games to play
games=[|7,3|8,5|11,6|8,11|7,11|5,3|9,5|8,1|1,6|6,10|4,10|5,10|10,4|9,6|1,3|2,10|6,3|2,7|11,9|11,1|11,4|6,7|2,8|2,6|8,4|7,6|7,8|4,2|7,1|2,3|11,2|11,10|7,9|];

%Initial points
iPoints=[29,19,22,26,24,15,12,15,30,10,7];

%POSITION CONSTRAINTS
% [|teamID, operator, position|...]
% operators index:
%  1 for =  operator
%  2 for >  operator
%  3 for >= operator
%  4 for <  operator
%  5 for <= operator
positionConstraints=[|4,3,1|1,5,2|];